200
1000
396
395
394
392
391
391
390
390
390
389
388
388
388
387
387
387
387
386
386
386
384
384
382
381
381
381
381
381
380
379
378
378
377
376
376
375
375
374
373
371
370
369
369
367
367
367
366
366
366
364
364
364
364
362
362
361
360
359
358
357
357
355
355
354
354
354
353
352
351
350
349
349
348
348
347
347
347
346
346
346
344
341
341
341
341
340
340
340
339
338
338
336
336
335
335
334
334
334
334
333
332
332
329
329
327
326
326
325
324
324
324
324
324
323
323
323
322
321
321
320
320
320
319
317
316
315
313
313
313
312
312
311
311
311
310
310
308
308
308
307
306
306
306
305
305
305
304
300
300
300
299
299
297
296
295
294
294
294
293
293
292
292
291
290
290
290
289
288
286
285
285
284
284
283
283
282
281
281
280
280
279
279
277
277
277
276
275
275
275
274
274
274
274
271
271
270
269
269
268
267
